(set-logic QF_UF)
(declare-fun A0 () Bool)
(declare-fun A1 () Bool)
(declare-fun A2 () Bool)
(declare-fun A3 () Bool)
(declare-fun A4 () Bool)
(declare-fun A5 () Bool)
(declare-fun A6 () Bool)
(declare-fun A7 () Bool)
(declare-fun A8 () Bool)
(declare-fun A9 () Bool)
(declare-fun A10 () Bool)
(declare-fun A11 () Bool)
(declare-fun A12 () Bool)
(declare-fun A13 () Bool)
(declare-fun A14 () Bool)
(declare-fun A15 () Bool)
(declare-fun A16 () Bool)
(declare-fun A17 () Bool)
(declare-fun A18 () Bool)
(declare-fun A19 () Bool)
(declare-fun A20 () Bool)
(declare-fun A21 () Bool)
(declare-fun A22 () Bool)
(declare-fun A23 () Bool)
(declare-fun A24 () Bool)
(assert (let ((.def_0 (or A8 A9))) (let ((.def_1 (not A1))) (let ((.def_2 (and .def_1 A18))) (let ((.def_3 (not .def_2))) (let ((.def_4 (or .def_3 .def_0))) (let ((.def_5 (not A9))) (let ((.def_6 (and A5 .def_5))) (let ((.def_7 (not .def_6))) (let ((.def_8 (not A18))) (let ((.def_9 (and A15 .def_8))) (let ((.def_10 (or .def_9 .def_7))) (let ((.def_11 (and .def_10 .def_4))) (let ((.def_12 (not A16))) (let ((.def_13 (not A13))) (let ((.def_14 (or .def_13 .def_12))) (let ((.def_15 (not A10))) (let ((.def_16 (and .def_15 A10))) (let ((.def_17 (and .def_16 .def_14))) (let ((.def_18 (not .def_17))) (let ((.def_19 (not A6))) (let ((.def_20 (or .def_5 .def_19))) (let ((.def_21 (not .def_20))) (let ((.def_22 (or A6 A11))) (let ((.def_23 (not .def_22))) (let ((.def_24 (and .def_23 .def_21))) (let ((.def_25 (or .def_24 .def_18))) (let ((.def_26 (= .def_25 .def_11))) (let ((.def_27 (or A0 A1))) (let ((.def_28 (not .def_27))) (let ((.def_29 (not A17))) (let ((.def_30 (or A20 .def_29))) (let ((.def_31 (or .def_30 .def_28))) (let ((.def_32 (not .def_31))) (let ((.def_33 (and A3 A13))) (let ((.def_34 (= A18 A19))) (let ((.def_35 (not .def_34))) (let ((.def_36 (and .def_35 .def_33))) (let ((.def_37 (or .def_36 .def_32))) (let ((.def_38 (not .def_37))) (let ((.def_39 (or .def_15 A9))) (let ((.def_40 (or A24 A20))) (let ((.def_41 (or .def_40 .def_39))) (let ((.def_42 (not .def_41))) (let ((.def_43 (and A17 A18))) (let ((.def_44 (not A14))) (let ((.def_45 (or A18 .def_44))) (let ((.def_46 (and .def_45 .def_43))) (let ((.def_47 (or .def_46 .def_42))) (let ((.def_48 (not .def_47))) (let ((.def_49 (and .def_48 .def_38))) (let ((.def_50 (or .def_49 .def_26))) (let ((.def_51 (not .def_50))) (let ((.def_52 (and .def_5 A23))) (let ((.def_53 (not .def_52))) (let ((.def_54 (or A17 .def_19))) (let ((.def_55 (not .def_54))) (let ((.def_56 (or .def_55 .def_53))) (let ((.def_57 (not .def_56))) (let ((.def_58 (or A15 A23))) (let ((.def_59 (and .def_1 .def_5))) (let ((.def_60 (not .def_59))) (let ((.def_61 (= .def_60 .def_58))) (let ((.def_62 (not .def_61))) (let ((.def_63 (or .def_62 .def_57))) (let ((.def_64 (not .def_63))) (let ((.def_65 (and A24 .def_1))) (let ((.def_66 (or .def_44 A11))) (let ((.def_67 (or .def_66 .def_65))) (let ((.def_68 (not .def_67))) (let ((.def_69 (not A5))) (let ((.def_70 (and .def_69 .def_8))) (let ((.def_71 (not .def_70))) (let ((.def_72 (not A3))) (let ((.def_73 (= .def_72 .def_8))) (let ((.def_74 (not .def_73))) (let ((.def_75 (or .def_74 .def_71))) (let ((.def_76 (not .def_75))) (let ((.def_77 (or .def_76 .def_68))) (let ((.def_78 (and .def_77 .def_64))) (let ((.def_79 (and .def_12 A16))) (let ((.def_80 (not A20))) (let ((.def_81 (not A15))) (let ((.def_82 (or .def_81 .def_80))) (let ((.def_83 (not .def_82))) (let ((.def_84 (or .def_83 .def_79))) (let ((.def_85 (not A24))) (let ((.def_86 (or .def_85 A22))) (let ((.def_87 (not .def_86))) (let ((.def_88 (and .def_5 A17))) (let ((.def_89 (or .def_88 .def_87))) (let ((.def_90 (not .def_89))) (let ((.def_91 (or .def_90 .def_84))) (let ((.def_92 (and A18 .def_72))) (let ((.def_93 (not .def_92))) (let ((.def_94 (or .def_81 .def_81))) (let ((.def_95 (or .def_94 .def_93))) (let ((.def_96 (not .def_95))) (let ((.def_97 (or A14 A14))) (let ((.def_98 (not .def_97))) (let ((.def_99 (and .def_8 .def_29))) (let ((.def_100 (not .def_99))) (let ((.def_101 (or .def_100 .def_98))) (let ((.def_102 (not .def_101))) (let ((.def_103 (or .def_102 .def_96))) (let ((.def_104 (not .def_103))) (let ((.def_105 (and .def_104 .def_91))) (let ((.def_106 (not .def_105))) (let ((.def_107 (and .def_106 .def_78))) (let ((.def_108 (or .def_107 .def_51))) (let ((.def_109 (not .def_108))) (let ((.def_110 (or A12 .def_8))) (let ((.def_111 (not .def_110))) (let ((.def_112 (or .def_5 A17))) (let ((.def_113 (not .def_112))) (let ((.def_114 (and .def_113 .def_111))) (let ((.def_115 (not A8))) (let ((.def_116 (or .def_115 A2))) (let ((.def_117 (not .def_116))) (let ((.def_118 (or A13 .def_85))) (let ((.def_119 (not .def_118))) (let ((.def_120 (and .def_119 .def_117))) (let ((.def_121 (or .def_120 .def_114))) (let ((.def_122 (not A4))) (let ((.def_123 (or .def_122 A9))) (let ((.def_124 (not .def_123))) (let ((.def_125 (not A12))) (let ((.def_126 (or A17 .def_125))) (let ((.def_127 (not .def_126))) (let ((.def_128 (or .def_127 .def_124))) (let ((.def_129 (not .def_128))) (let ((.def_130 (not A2))) (let ((.def_131 (or A12 .def_130))) (let ((.def_132 (or A23 .def_15))) (let ((.def_133 (not .def_132))) (let ((.def_134 (or .def_133 .def_131))) (let ((.def_135 (not .def_134))) (let ((.def_136 (or .def_135 .def_129))) (let ((.def_137 (= .def_136 .def_121))) (let ((.def_138 (not .def_137))) (let ((.def_139 (and A22 A22))) (let ((.def_140 (and .def_19 .def_72))) (let ((.def_141 (and .def_140 .def_139))) (let ((.def_142 (or A9 A0))) (let ((.def_143 (or A4 .def_29))) (let ((.def_144 (not .def_143))) (let ((.def_145 (and .def_144 .def_142))) (let ((.def_146 (and .def_145 .def_141))) (let ((.def_147 (and A16 A7))) (let ((.def_148 (not .def_147))) (let ((.def_149 (and .def_125 A9))) (let ((.def_150 (= .def_149 .def_148))) (let ((.def_151 (not .def_150))) (let ((.def_152 (and .def_85 A9))) (let ((.def_153 (not .def_152))) (let ((.def_154 (not A0))) (let ((.def_155 (or .def_154 A14))) (let ((.def_156 (or .def_155 .def_153))) (let ((.def_157 (or .def_156 .def_151))) (let ((.def_158 (not .def_157))) (let ((.def_159 (and .def_158 .def_146))) (let ((.def_160 (or .def_159 .def_138))) (let ((.def_161 (not .def_160))) (let ((.def_162 (not A19))) (let ((.def_163 (or .def_12 .def_162))) (let ((.def_164 (not .def_163))) (let ((.def_165 (or A7 .def_44))) (let ((.def_166 (or .def_165 .def_164))) (let ((.def_167 (not .def_166))) (let ((.def_168 (and .def_44 A1))) (let ((.def_169 (not A21))) (let ((.def_170 (and .def_80 .def_169))) (let ((.def_171 (or .def_170 .def_168))) (let ((.def_172 (not .def_171))) (let ((.def_173 (and .def_172 .def_167))) (let ((.def_174 (and A17 .def_72))) (let ((.def_175 (not .def_174))) (let ((.def_176 (or A20 .def_72))) (let ((.def_177 (not .def_176))) (let ((.def_178 (or .def_177 .def_175))) (let ((.def_179 (and A10 .def_72))) (let ((.def_180 (not .def_179))) (let ((.def_181 (and .def_69 A19))) (let ((.def_182 (= .def_181 .def_180))) (let ((.def_183 (or .def_182 .def_178))) (let ((.def_184 (not .def_183))) (let ((.def_185 (= .def_184 .def_173))) (let ((.def_186 (not .def_185))) (let ((.def_187 (or A7 A6))) (let ((.def_188 (or .def_1 A19))) (let ((.def_189 (or .def_188 .def_187))) (let ((.def_190 (not .def_189))) (let ((.def_191 (and .def_80 .def_85))) (let ((.def_192 (or A16 A16))) (let ((.def_193 (or .def_192 .def_191))) (let ((.def_194 (not .def_193))) (let ((.def_195 (or .def_194 .def_190))) (let ((.def_196 (not .def_195))) (let ((.def_197 (and A4 A23))) (let ((.def_198 (not .def_197))) (let ((.def_199 (or A19 A15))) (let ((.def_200 (= .def_199 .def_198))) (let ((.def_201 (not .def_200))) (let ((.def_202 (not A22))) (let ((.def_203 (and .def_162 .def_202))) (let ((.def_204 (not .def_203))) (let ((.def_205 (or A6 A16))) (let ((.def_206 (and .def_205 .def_204))) (let ((.def_207 (or .def_206 .def_201))) (let ((.def_208 (not .def_207))) (let ((.def_209 (or .def_208 .def_196))) (let ((.def_210 (or .def_209 .def_186))) (let ((.def_211 (not .def_210))) (let ((.def_212 (or .def_211 .def_161))) (let ((.def_213 (and .def_212 .def_109))) (let ((.def_214 (or .def_8 .def_85))) (let ((.def_215 (not .def_214))) (let ((.def_216 (and A14 .def_162))) (let ((.def_217 (and .def_216 .def_215))) (let ((.def_218 (not .def_217))) (let ((.def_219 (or .def_1 .def_125))) (let ((.def_220 (not A23))) (let ((.def_221 (and .def_130 .def_220))) (let ((.def_222 (not .def_221))) (let ((.def_223 (and .def_222 .def_219))) (let ((.def_224 (and .def_223 .def_218))) (let ((.def_225 (and A1 A9))) (let ((.def_226 (or A7 .def_72))) (let ((.def_227 (or .def_226 .def_225))) (let ((.def_228 (or A10 .def_85))) (let ((.def_229 (not .def_228))) (let ((.def_230 (and A14 .def_125))) (let ((.def_231 (and .def_230 .def_229))) (let ((.def_232 (not .def_231))) (let ((.def_233 (and .def_232 .def_227))) (let ((.def_234 (not .def_233))) (let ((.def_235 (or .def_234 .def_224))) (let ((.def_236 (and A19 A23))) (let ((.def_237 (and .def_19 A0))) (let ((.def_238 (or .def_237 .def_236))) (let ((.def_239 (not .def_238))) (let ((.def_240 (and A17 .def_169))) (let ((.def_241 (or .def_162 A16))) (let ((.def_242 (not .def_241))) (let ((.def_243 (and .def_242 .def_240))) (let ((.def_244 (not .def_243))) (let ((.def_245 (and .def_244 .def_239))) (let ((.def_246 (not .def_245))) (let ((.def_247 (or A12 A24))) (let ((.def_248 (or .def_69 .def_122))) (let ((.def_249 (or .def_248 .def_247))) (let ((.def_250 (or A14 .def_80))) (let ((.def_251 (not A11))) (let ((.def_252 (and .def_15 .def_251))) (let ((.def_253 (not .def_252))) (let ((.def_254 (or .def_253 .def_250))) (let ((.def_255 (and .def_254 .def_249))) (let ((.def_256 (not .def_255))) (let ((.def_257 (or .def_256 .def_246))) (let ((.def_258 (not .def_257))) (let ((.def_259 (or .def_258 .def_235))) (let ((.def_260 (= A16 .def_13))) (let ((.def_261 (and A4 .def_115))) (let ((.def_262 (and .def_261 .def_260))) (let ((.def_263 (not .def_262))) (let ((.def_264 (or A21 .def_220))) (let ((.def_265 (not .def_264))) (let ((.def_266 (or .def_220 A0))) (let ((.def_267 (or .def_266 .def_265))) (let ((.def_268 (not .def_267))) (let ((.def_269 (= .def_268 .def_263))) (let ((.def_270 (= .def_80 .def_29))) (let ((.def_271 (not .def_270))) (let ((.def_272 (and A7 .def_15))) (let ((.def_273 (not .def_272))) (let ((.def_274 (and .def_273 .def_271))) (let ((.def_275 (or A17 A18))) (let ((.def_276 (and A19 .def_220))) (let ((.def_277 (or .def_276 .def_275))) (let ((.def_278 (and .def_277 .def_274))) (let ((.def_279 (or .def_278 .def_269))) (let ((.def_280 (or .def_8 .def_154))) (let ((.def_281 (not A7))) (let ((.def_282 (and .def_281 A23))) (let ((.def_283 (not .def_282))) (let ((.def_284 (and .def_283 .def_280))) (let ((.def_285 (not .def_284))) (let ((.def_286 (and A14 .def_130))) (let ((.def_287 (not .def_286))) (let ((.def_288 (and A5 A7))) (let ((.def_289 (= .def_288 .def_287))) (let ((.def_290 (not .def_289))) (let ((.def_291 (or .def_290 .def_285))) (let ((.def_292 (not .def_291))) (let ((.def_293 (and .def_169 A15))) (let ((.def_294 (and .def_130 .def_125))) (let ((.def_295 (= .def_294 .def_293))) (let ((.def_296 (not .def_295))) (let ((.def_297 (or A10 A8))) (let ((.def_298 (not .def_297))) (let ((.def_299 (and .def_85 .def_125))) (let ((.def_300 (not .def_299))) (let ((.def_301 (or .def_300 .def_298))) (let ((.def_302 (and .def_301 .def_296))) (let ((.def_303 (and .def_302 .def_292))) (let ((.def_304 (not .def_303))) (let ((.def_305 (or .def_304 .def_279))) (let ((.def_306 (and .def_305 .def_259))) (let ((.def_307 (not .def_306))) (let ((.def_308 (and .def_15 A8))) (let ((.def_309 (not .def_308))) (let ((.def_310 (or A13 .def_251))) (let ((.def_311 (and .def_310 .def_309))) (let ((.def_312 (not .def_311))) (let ((.def_313 (= A23 .def_72))) (let ((.def_314 (not .def_313))) (let ((.def_315 (and .def_15 .def_130))) (let ((.def_316 (not .def_315))) (let ((.def_317 (or .def_316 .def_314))) (let ((.def_318 (not .def_317))) (let ((.def_319 (and .def_318 .def_312))) (let ((.def_320 (= .def_169 .def_122))) (let ((.def_321 (not .def_320))) (let ((.def_322 (or .def_72 A1))) (let ((.def_323 (not .def_322))) (let ((.def_324 (and .def_323 .def_321))) (let ((.def_325 (not .def_324))) (let ((.def_326 (and A1 A7))) (let ((.def_327 (not .def_326))) (let ((.def_328 (or A21 .def_81))) (let ((.def_329 (not .def_328))) (let ((.def_330 (and .def_329 .def_327))) (let ((.def_331 (not .def_330))) (let ((.def_332 (or .def_331 .def_325))) (let ((.def_333 (= .def_332 .def_319))) (let ((.def_334 (not .def_333))) (let ((.def_335 (and .def_115 .def_15))) (let ((.def_336 (= .def_44 A6))) (let ((.def_337 (and .def_336 .def_335))) (let ((.def_338 (not .def_337))) (let ((.def_339 (= .def_169 A3))) (let ((.def_340 (not .def_339))) (let ((.def_341 (or .def_29 .def_125))) (let ((.def_342 (not .def_341))) (let ((.def_343 (or .def_342 .def_340))) (let ((.def_344 (or .def_343 .def_338))) (let ((.def_345 (not .def_344))) (let ((.def_346 (and .def_15 A9))) (let ((.def_347 (not .def_346))) (let ((.def_348 (or .def_29 .def_162))) (let ((.def_349 (or .def_348 .def_347))) (let ((.def_350 (and .def_13 .def_29))) (let ((.def_351 (not .def_350))) (let ((.def_352 (= .def_122 .def_81))) (let ((.def_353 (not .def_352))) (let ((.def_354 (or .def_353 .def_351))) (let ((.def_355 (and .def_354 .def_349))) (let ((.def_356 (not .def_355))) (let ((.def_357 (and .def_356 .def_345))) (let ((.def_358 (not .def_357))) (let ((.def_359 (or .def_358 .def_334))) (let ((.def_360 (not .def_359))) (let ((.def_361 (or A9 A7))) (let ((.def_362 (or A13 A14))) (let ((.def_363 (not .def_362))) (let ((.def_364 (= .def_363 .def_361))) (let ((.def_365 (not .def_364))) (let ((.def_366 (and A17 A14))) (let ((.def_367 (not .def_366))) (let ((.def_368 (and A23 A24))) (let ((.def_369 (not .def_368))) (let ((.def_370 (or .def_369 .def_367))) (let ((.def_371 (not .def_370))) (let ((.def_372 (and .def_371 .def_365))) (let ((.def_373 (or .def_44 .def_72))) (let ((.def_374 (not .def_373))) (let ((.def_375 (and A12 A4))) (let ((.def_376 (not .def_375))) (let ((.def_377 (and .def_376 .def_374))) (let ((.def_378 (not .def_377))) (let ((.def_379 (= A22 A20))) (let ((.def_380 (and A3 .def_281))) (let ((.def_381 (or .def_380 .def_379))) (let ((.def_382 (or .def_381 .def_378))) (let ((.def_383 (not .def_382))) (let ((.def_384 (= .def_383 .def_372))) (let ((.def_385 (and .def_5 .def_220))) (let ((.def_386 (and A8 A18))) (let ((.def_387 (or .def_386 .def_385))) (let ((.def_388 (not .def_387))) (let ((.def_389 (and .def_81 .def_69))) (let ((.def_390 (not .def_389))) (let ((.def_391 (and A4 .def_5))) (let ((.def_392 (or .def_391 .def_390))) (let ((.def_393 (not .def_392))) (let ((.def_394 (and .def_393 .def_388))) (let ((.def_395 (= .def_162 .def_251))) (let ((.def_396 (= A24 A7))) (let ((.def_397 (not .def_396))) (let ((.def_398 (= .def_397 .def_395))) (let ((.def_399 (or A16 A13))) (let ((.def_400 (and .def_124 .def_399))) (let ((.def_401 (or .def_400 .def_398))) (let ((.def_402 (not .def_401))) (let ((.def_403 (and .def_402 .def_394))) (let ((.def_404 (not .def_403))) (let ((.def_405 (or .def_404 .def_384))) (let ((.def_406 (or .def_405 .def_360))) (let ((.def_407 (and .def_406 .def_307))) (let ((.def_408 (not .def_407))) (let ((.def_409 (or .def_408 .def_213))) .def_409)))))))))))))))))))))))))))))))))))))))))))))))))))))))))))))))))))))))))))))))))))))))))))))))))))))))))))))))))))))))))))))))))))))))))))))))))))))))))))))))))))))))))))))))))))))))))))))))))))))))))))))))))))))))))))))))))))))))))))))))))))))))))))))))))))))))))))))))))))))))))))))))))))))))))))))))))))))))))))))))))))))))))))))))))))))))))))))))))))))))))))))))))))))))))))))))))))))))))))))))))))))))))))
(check-sat)
